p cnf 382 1162
a 111 0
e 1 2 3 4 5 130 132 382 0
a 112 113 114 0
e 6 7 8 9 10 11 12 13 14 15 16 17 18 19 20 21 22 137 154 156 158 160 162 377 378 379 380 381 0
a 115 116 117 0
e 23 24 25 26 27 28 29 30 31 32 33 34 35 36 37 38 39 40 41 169 192 194 196 198 200 202 204 370 371 372 373 374 375 376 0
a 118 119 120 0
e 42 43 44 45 46 47 48 49 50 51 52 53 54 55 56 57 58 59 60 211 228 230 232 234 236 238 240 363 364 365 366 367 368 369 0
a 121 122 123 0
e 61 62 63 64 65 66 67 68 69 70 71 72 73 74 75 76 77 78 79 247 270 272 274 276 278 280 282 356 357 358 359 360 361 362 0
a 124 125 126 0
e 80 81 82 83 84 85 86 87 88 89 90 91 92 93 94 95 96 97 98 289 306 308 310 312 314 316 318 349 350 351 352 353 354 355 0
a 127 128 129 0
e 99 100 101 102 103 104 105 106 107 108 109 110 131 133 134 135 136 138 139 140 141 142 143 144 145 146 147 148 149 150 151 152 153 155 157 159 161 163 164 165 166 167 168 170 171 172 173 174 175 176 177 178 179 180 181 182 183 184 185 186 187 188 189 190 191 193 195 197 199 201 203 205 206 207 208 209 210 212 213 214 215 216 217 218 219 220 221 222 223 224 225 226 227 229 231 233 235 237 239 241 242 243 244 245 246 248 249 250 251 252 253 254 255 256 257 258 259 260 261 262 263 264 265 266 267 268 269 271 273 275 277 279 281 283 284 285 286 287 288 290 291 292 293 294 295 296 297 298 299 300 301 302 303 304 305 307 309 311 313 315 317 319 320 321 322 323 324 325 326 327 328 329 330 331 332 333 334 335 336 337 338 339 340 341 342 343 344 345 346 347 348 0
130 382 0
-130 -111 0
111 130 0
-382 132 0
111 132 0
-131 132 0
-131 5 0
-131 1 0
-131 2 0
-131 4 0
-131 3 0
-137 133 0
-137 134 0
-137 135 0
-137 136 0
4 133 0
-112 133 0
-113 133 0
114 133 0
3 134 0
112 134 0
-113 134 0
114 134 0
2 135 0
-112 135 0
113 135 0
114 135 0
1 136 0
112 136 0
113 136 0
114 136 0
-381 154 0
-381 156 0
-381 158 0
-381 160 0
-381 162 0
-381 377 0
-381 378 0
-381 379 0
-381 380 0
-139 154 0
-153 154 0
5 139 0
-138 139 0
-138 -4 0
-138 -3 0
-138 -2 0
-138 -1 0
-153 12 0
-153 140 0
-153 141 0
-153 142 0
-153 143 0
-153 144 0
-153 145 0
-153 146 0
-153 147 0
-153 148 0
-153 149 0
-153 150 0
-153 151 0
-153 152 0
-11 140 0
-21 140 0
-9 141 0
-22 141 0
-7 142 0
-22 142 0
-9 143 0
-20 143 0
-7 144 0
-20 144 0
-9 145 0
-18 145 0
-7 146 0
-18 146 0
-10 147 0
-19 147 0
-10 148 0
-17 148 0
-8 149 0
-19 149 0
-8 150 0
-17 150 0
-6 151 0
-19 151 0
-6 152 0
-17 152 0
-155 156 0
-16 156 0
-112 155 0
-113 155 0
114 155 0
-157 158 0
-15 158 0
112 157 0
-113 157 0
114 157 0
-159 160 0
-14 160 0
-112 159 0
113 159 0
114 159 0
-161 162 0
-13 162 0
112 161 0
113 161 0
114 161 0
-169 163 0
-169 164 0
-169 165 0
-169 166 0
-169 167 0
-169 168 0
11 163 0
-115 163 0
116 163 0
-117 163 0
10 164 0
115 164 0
116 164 0
-117 164 0
9 165 0
-115 165 0
-116 165 0
117 165 0
8 166 0
115 166 0
-116 166 0
117 166 0
7 167 0
-115 167 0
116 167 0
117 167 0
6 168 0
115 168 0
116 168 0
117 168 0
-376 192 0
-376 194 0
-376 196 0
-376 198 0
-376 200 0
-376 202 0
-376 204 0
-376 370 0
-376 371 0
-376 372 0
-376 373 0
-376 374 0
-376 375 0
-171 192 0
-191 192 0
12 171 0
-170 171 0
-170 -11 0
-170 -10 0
-170 -9 0
-170 -8 0
-170 -7 0
-170 -6 0
-191 29 0
-191 172 0
-191 173 0
-191 174 0
-191 175 0
-191 176 0
-191 177 0
-191 178 0
-191 179 0
-191 180 0
-191 181 0
-191 182 0
-191 183 0
-191 184 0
-191 185 0
-191 186 0
-191 187 0
-191 188 0
-191 189 0
-191 190 0
-24 172 0
-41 172 0
-23 173 0
-41 173 0
-24 174 0
-39 174 0
-24 175 0
-37 175 0
-27 176 0
-36 176 0
-25 177 0
-36 177 0
-23 178 0
-36 178 0
-23 179 0
-40 179 0
-23 180 0
-38 180 0
-25 181 0
-40 181 0
-25 182 0
-38 182 0
-27 183 0
-40 183 0
-27 184 0
-38 184 0
-28 185 0
-37 185 0
-26 186 0
-37 186 0
-28 187 0
-39 187 0
-26 188 0
-39 188 0
-28 189 0
-41 189 0
-26 190 0
-41 190 0
-193 194 0
-35 194 0
-115 193 0
116 193 0
-117 193 0
-195 196 0
-34 196 0
115 195 0
116 195 0
-117 195 0
-197 198 0
-33 198 0
-115 197 0
-116 197 0
117 197 0
-199 200 0
-32 200 0
115 199 0
-116 199 0
117 199 0
-201 202 0
-31 202 0
-115 201 0
116 201 0
117 201 0
-203 204 0
-30 204 0
115 203 0
116 203 0
117 203 0
-211 205 0
-211 206 0
-211 207 0
-211 208 0
-211 209 0
-211 210 0
28 205 0
-118 205 0
119 205 0
-120 205 0
27 206 0
118 206 0
119 206 0
-120 206 0
26 207 0
-118 207 0
-119 207 0
120 207 0
25 208 0
118 208 0
-119 208 0
120 208 0
24 209 0
-118 209 0
119 209 0
120 209 0
23 210 0
118 210 0
119 210 0
120 210 0
-369 228 0
-369 230 0
-369 232 0
-369 234 0
-369 236 0
-369 238 0
-369 240 0
-369 363 0
-369 364 0
-369 365 0
-369 366 0
-369 367 0
-369 368 0
-213 228 0
-227 228 0
29 213 0
-212 213 0
-212 -28 0
-212 -27 0
-212 -26 0
-212 -25 0
-212 -24 0
-212 -23 0
-227 48 0
-227 214 0
-227 215 0
-227 216 0
-227 217 0
-227 218 0
-227 219 0
-227 220 0
-227 221 0
-227 222 0
-227 223 0
-227 224 0
-227 225 0
-227 226 0
-45 214 0
-55 214 0
-47 215 0
-60 215 0
-43 216 0
-60 216 0
-47 217 0
-58 217 0
-43 218 0
-58 218 0
-47 219 0
-56 219 0
-43 220 0
-56 220 0
-46 221 0
-59 221 0
-46 222 0
-57 222 0
-44 223 0
-59 223 0
-44 224 0
-57 224 0
-42 225 0
-59 225 0
-42 226 0
-57 226 0
-229 230 0
-54 230 0
-118 229 0
119 229 0
-120 229 0
-231 232 0
-53 232 0
118 231 0
119 231 0
-120 231 0
-233 234 0
-52 234 0
-118 233 0
-119 233 0
120 233 0
-235 236 0
-51 236 0
118 235 0
-119 235 0
120 235 0
-237 238 0
-50 238 0
-118 237 0
119 237 0
120 237 0
-239 240 0
-49 240 0
118 239 0
119 239 0
120 239 0
-247 241 0
-247 242 0
-247 243 0
-247 244 0
-247 245 0
-247 246 0
47 241 0
-121 241 0
122 241 0
-123 241 0
46 242 0
121 242 0
122 242 0
-123 242 0
45 243 0
-121 243 0
-122 243 0
123 243 0
44 244 0
121 244 0
-122 244 0
123 244 0
43 245 0
-121 245 0
122 245 0
123 245 0
42 246 0
121 246 0
122 246 0
123 246 0
-362 270 0
-362 272 0
-362 274 0
-362 276 0
-362 278 0
-362 280 0
-362 282 0
-362 356 0
-362 357 0
-362 358 0
-362 359 0
-362 360 0
-362 361 0
-249 270 0
-269 270 0
48 249 0
-248 249 0
-248 -47 0
-248 -46 0
-248 -45 0
-248 -44 0
-248 -43 0
-248 -42 0
-269 67 0
-269 250 0
-269 251 0
-269 252 0
-269 253 0
-269 254 0
-269 255 0
-269 256 0
-269 257 0
-269 258 0
-269 259 0
-269 260 0
-269 261 0
-269 262 0
-269 263 0
-269 264 0
-269 265 0
-269 266 0
-269 267 0
-269 268 0
-62 250 0
-79 250 0
-62 251 0
-77 251 0
-61 252 0
-77 252 0
-62 253 0
-75 253 0
-65 254 0
-74 254 0
-63 255 0
-74 255 0
-61 256 0
-74 256 0
-61 257 0
-78 257 0
-61 258 0
-76 258 0
-63 259 0
-78 259 0
-63 260 0
-76 260 0
-65 261 0
-78 261 0
-65 262 0
-76 262 0
-66 263 0
-75 263 0
-64 264 0
-75 264 0
-66 265 0
-77 265 0
-64 266 0
-77 266 0
-66 267 0
-79 267 0
-64 268 0
-79 268 0
-271 272 0
-73 272 0
-121 271 0
122 271 0
-123 271 0
-273 274 0
-72 274 0
121 273 0
122 273 0
-123 273 0
-275 276 0
-71 276 0
-121 275 0
-122 275 0
123 275 0
-277 278 0
-70 278 0
121 277 0
-122 277 0
123 277 0
-279 280 0
-69 280 0
-121 279 0
122 279 0
123 279 0
-281 282 0
-68 282 0
121 281 0
122 281 0
123 281 0
-289 283 0
-289 284 0
-289 285 0
-289 286 0
-289 287 0
-289 288 0
66 283 0
-124 283 0
125 283 0
-126 283 0
65 284 0
124 284 0
125 284 0
-126 284 0
64 285 0
-124 285 0
-125 285 0
126 285 0
63 286 0
124 286 0
-125 286 0
126 286 0
62 287 0
-124 287 0
125 287 0
126 287 0
61 288 0
124 288 0
125 288 0
126 288 0
-355 306 0
-355 308 0
-355 310 0
-355 312 0
-355 314 0
-355 316 0
-355 318 0
-355 349 0
-355 350 0
-355 351 0
-355 352 0
-355 353 0
-355 354 0
-291 306 0
-305 306 0
67 291 0
-290 291 0
-290 -66 0
-290 -65 0
-290 -64 0
-290 -63 0
-290 -62 0
-290 -61 0
-305 86 0
-305 292 0
-305 293 0
-305 294 0
-305 295 0
-305 296 0
-305 297 0
-305 298 0
-305 299 0
-305 300 0
-305 301 0
-305 302 0
-305 303 0
-305 304 0
-83 292 0
-93 292 0
-85 293 0
-98 293 0
-81 294 0
-98 294 0
-85 295 0
-96 295 0
-81 296 0
-96 296 0
-85 297 0
-94 297 0
-81 298 0
-94 298 0
-84 299 0
-97 299 0
-84 300 0
-95 300 0
-82 301 0
-97 301 0
-82 302 0
-95 302 0
-80 303 0
-97 303 0
-80 304 0
-95 304 0
-307 308 0
-92 308 0
-124 307 0
125 307 0
-126 307 0
-309 310 0
-91 310 0
124 309 0
125 309 0
-126 309 0
-311 312 0
-90 312 0
-124 311 0
-125 311 0
126 311 0
-313 314 0
-89 314 0
124 313 0
-125 313 0
126 313 0
-315 316 0
-88 316 0
-124 315 0
125 315 0
126 315 0
-317 318 0
-87 318 0
124 317 0
125 317 0
126 317 0
-325 319 0
-325 320 0
-325 321 0
-325 322 0
-325 323 0
-325 324 0
85 319 0
-127 319 0
128 319 0
-129 319 0
84 320 0
127 320 0
128 320 0
-129 320 0
83 321 0
-127 321 0
-128 321 0
129 321 0
82 322 0
127 322 0
-128 322 0
129 322 0
81 323 0
-127 323 0
128 323 0
129 323 0
80 324 0
127 324 0
128 324 0
129 324 0
-348 329 0
-348 331 0
-348 333 0
-348 335 0
-348 337 0
-348 339 0
-348 341 0
-348 342 0
-348 343 0
-348 344 0
-348 345 0
-348 346 0
-348 347 0
-327 329 0
-328 329 0
86 327 0
-326 327 0
-326 -85 0
-326 -84 0
-326 -83 0
-326 -82 0
-326 -81 0
-326 -80 0
-328 105 0
-328 108 0
-328 109 0
-328 107 0
-330 331 0
-104 331 0
-127 330 0
128 330 0
-129 330 0
-332 333 0
-103 333 0
127 332 0
128 332 0
-129 332 0
-334 335 0
-102 335 0
-127 334 0
-128 334 0
129 334 0
-336 337 0
-101 337 0
127 336 0
-128 336 0
129 336 0
-338 339 0
-100 339 0
-127 338 0
128 338 0
129 338 0
-340 341 0
-99 341 0
127 340 0
128 340 0
129 340 0
104 342 0
110 342 0
103 343 0
109 343 0
102 344 0
108 344 0
101 345 0
107 345 0
100 346 0
106 346 0
99 347 0
105 347 0
92 349 0
98 349 0
91 350 0
97 350 0
90 351 0
96 351 0
89 352 0
95 352 0
88 353 0
94 353 0
87 354 0
93 354 0
73 356 0
79 356 0
72 357 0
78 357 0
71 358 0
77 358 0
70 359 0
76 359 0
69 360 0
75 360 0
68 361 0
74 361 0
54 363 0
60 363 0
53 364 0
59 364 0
52 365 0
58 365 0
51 366 0
57 366 0
50 367 0
56 367 0
49 368 0
55 368 0
35 370 0
41 370 0
34 371 0
40 371 0
33 372 0
39 372 0
32 373 0
38 373 0
31 374 0
37 374 0
30 375 0
36 375 0
16 377 0
22 377 0
15 378 0
21 378 0
14 379 0
20 379 0
13 380 0
18 380 0
-132 382 0
-132 -111 131 0
137 381 0
-154 139 153 0
-139 -5 138 0
-140 11 21 0
-141 9 22 0
-142 7 22 0
-143 9 20 0
-144 7 20 0
-145 9 18 0
-146 7 18 0
-147 10 19 0
-148 10 17 0
-149 8 19 0
-150 8 17 0
-151 6 19 0
-152 6 17 0
-156 16 155 0
-158 15 157 0
-160 14 159 0
-162 13 161 0
169 376 0
-192 171 191 0
-171 -12 170 0
-172 24 41 0
-173 23 41 0
-174 24 39 0
-175 24 37 0
-176 27 36 0
-177 25 36 0
-178 23 36 0
-179 23 40 0
-180 23 38 0
-181 25 40 0
-182 25 38 0
-183 27 40 0
-184 27 38 0
-185 28 37 0
-186 26 37 0
-187 28 39 0
-188 26 39 0
-189 28 41 0
-190 26 41 0
-194 35 193 0
-196 34 195 0
-198 33 197 0
-200 32 199 0
-202 31 201 0
-204 30 203 0
211 369 0
-228 213 227 0
-213 -29 212 0
-214 45 55 0
-215 47 60 0
-216 43 60 0
-217 47 58 0
-218 43 58 0
-219 47 56 0
-220 43 56 0
-221 46 59 0
-222 46 57 0
-223 44 59 0
-224 44 57 0
-225 42 59 0
-226 42 57 0
-230 54 229 0
-232 53 231 0
-234 52 233 0
-236 51 235 0
-238 50 237 0
-240 49 239 0
247 362 0
-270 249 269 0
-249 -48 248 0
-250 62 79 0
-251 62 77 0
-252 61 77 0
-253 62 75 0
-254 65 74 0
-255 63 74 0
-256 61 74 0
-257 61 78 0
-258 61 76 0
-259 63 78 0
-260 63 76 0
-261 65 78 0
-262 65 76 0
-263 66 75 0
-264 64 75 0
-265 66 77 0
-266 64 77 0
-267 66 79 0
-268 64 79 0
-272 73 271 0
-274 72 273 0
-276 71 275 0
-278 70 277 0
-280 69 279 0
-282 68 281 0
289 355 0
-306 291 305 0
-291 -67 290 0
-292 83 93 0
-293 85 98 0
-294 81 98 0
-295 85 96 0
-296 81 96 0
-297 85 94 0
-298 81 94 0
-299 84 97 0
-300 84 95 0
-301 82 97 0
-302 82 95 0
-303 80 97 0
-304 80 95 0
-308 92 307 0
-310 91 309 0
-312 90 311 0
-314 89 313 0
-316 88 315 0
-318 87 317 0
325 348 0
-329 327 328 0
-327 -86 326 0
-331 104 330 0
-333 103 332 0
-335 102 334 0
-337 101 336 0
-339 100 338 0
-341 99 340 0
-342 -110 -104 0
-343 -109 -103 0
-344 -108 -102 0
-345 -107 -101 0
-346 -106 -100 0
-347 -105 -99 0
-349 -98 -92 0
-350 -97 -91 0
-351 -96 -90 0
-352 -95 -89 0
-353 -94 -88 0
-354 -93 -87 0
-356 -79 -73 0
-357 -78 -72 0
-358 -77 -71 0
-359 -76 -70 0
-360 -75 -69 0
-361 -74 -68 0
-363 -60 -54 0
-364 -59 -53 0
-365 -58 -52 0
-366 -57 -51 0
-367 -56 -50 0
-368 -55 -49 0
-370 -41 -35 0
-371 -40 -34 0
-372 -39 -33 0
-373 -38 -32 0
-374 -37 -31 0
-375 -36 -30 0
-377 -22 -16 0
-378 -21 -15 0
-379 -20 -14 0
-380 -18 -13 0
112 114 137 0
-348 327 336 0
-348 327 332 0
-376 -41 193 0
-376 -39 197 0
-348 327 334 0
-348 327 340 0
-355 291 317 0
-362 -74 281 0
-376 -37 201 0
-362 -79 271 0
-362 -77 275 0
-155 -114 112 113 0
-157 -114 -112 113 0
-159 -114 -113 112 0
-161 -114 -113 -112 0
-193 -116 115 117 0
-195 -116 -115 117 0
-197 -117 115 116 0
-199 -117 -115 116 0
-201 -117 -116 115 0
-203 -117 -116 -115 0
-229 -119 118 120 0
-231 -119 -118 120 0
-233 -120 118 119 0
-235 -120 -118 119 0
-237 -120 -119 118 0
-239 -120 -119 -118 0
-271 -122 121 123 0
-273 -122 -121 123 0
-275 -123 121 122 0
-277 -123 -121 122 0
-279 -123 -122 121 0
-281 -123 -122 -121 0
-307 -125 124 126 0
-309 -125 -124 126 0
-311 -126 124 125 0
-313 -126 -124 125 0
-315 -126 -125 124 0
-317 -126 -125 -124 0
-330 -128 127 129 0
-332 -128 -127 129 0
-334 -129 127 128 0
-336 -129 -127 128 0
-338 -129 -128 127 0
-340 -129 -128 -127 0
-135 112 114 137 0
-362 61 249 281 0
-115 116 117 169 0
-376 24 171 201 0
118 119 120 211 0
-381 9 139 159 0
-376 23 171 195 0
127 128 129 325 0
-362 65 249 281 0
-355 82 291 309 0
-242 -121 123 247 0
-369 42 213 231 0
-241 121 123 247 0
-284 -124 126 289 0
47 121 123 247 0
-124 65 126 289 0
124 125 126 289 0
-121 46 123 247 0
-121 122 123 247 0
-376 27 171 203 0
-369 47 213 229 0
-362 64 249 271 0
-136 -135 -134 -133 137 0
-133 -114 -4 112 113 0
-134 -114 -112 -3 113 0
-135 -114 -113 -2 112 0
-136 -114 -113 -112 -1 0
1 2 3 4 138 0
-163 -116 -11 115 117 0
-164 -116 -115 -10 117 0
-165 -117 -9 115 116 0
-166 -117 -115 -8 116 0
-167 -117 -116 -7 115 0
-168 -117 -116 -115 -6 0
-205 -119 -28 118 120 0
-206 -119 -118 -27 120 0
-207 -120 -26 118 119 0
-208 -120 -118 -25 119 0
-209 -120 -119 -24 118 0
-210 -120 -119 -118 -23 0
-241 -122 -47 121 123 0
-242 -122 -121 -46 123 0
-243 -123 -45 121 122 0
-244 -123 -121 -44 122 0
-245 -123 -122 -43 121 0
-246 -123 -122 -121 -42 0
-283 -125 -66 124 126 0
-284 -125 -124 -65 126 0
-285 -126 -64 124 125 0
-286 -126 -124 -63 125 0
-287 -126 -125 -62 124 0
-288 -126 -125 -124 -61 0
-319 -128 -85 127 129 0
-320 -128 -127 -84 129 0
-321 -129 -83 127 128 0
-322 -129 -127 -82 128 0
-323 -129 -128 -81 127 0
-324 -129 -128 -127 -80 0
-109 -108 -107 -105 328 0
-285 -284 -124 126 289 0
-244 -123 -121 122 247 0
-206 -205 118 120 211 0
-323 -319 127 129 325 0
-206 28 118 120 211 0
-284 -124 64 126 289 0
-285 124 125 126 289 0
-207 -205 118 120 211 0
-286 -126 -124 125 289 0
64 124 125 126 289 0
-123 -121 44 122 247 0
-123 45 121 122 247 0
-126 -124 63 125 289 0
-245 -123 -122 121 247 0
-288 -126 -125 -124 289 0
-126 -125 -124 61 289 0
-123 -122 43 121 247 0
-246 -123 -122 -121 247 0
-123 -122 -121 42 247 0
-128 -127 -84 129 327 0
-5 -4 -3 -2 -1 131 0
-323 -129 -128 83 127 325 0
-209 -208 -120 -118 119 211 0
-129 -127 -82 128 327 0
-355 -129 -127 128 291 313 0
-210 -207 -205 118 120 211 0
-286 -283 -126 -124 125 289 0
-168 -116 11 115 117 169 0
-116 6 11 115 117 169 0
-286 -126 -124 66 125 289 0
-324 -321 -320 -127 129 325 0
-122 -121 -46 123 249 0
-208 -120 -118 24 119 211 0
-246 -245 -123 -122 121 247 0
-321 -319 -129 127 128 325 0
-243 -242 -121 42 123 247 0
-129 -83 127 128 327 0
-129 -128 -127 -86 -80 326 0
-123 -121 -48 -44 122 248 0
-126 -125 -124 -67 -61 290 0
-128 -127 -86 -84 129 326 0
-120 -119 -118 -29 -23 212 0
-168 -167 -166 -165 -164 -163 169 0
6 7 8 9 10 11 170 0
-210 -209 -208 -207 -206 -205 211 0
23 24 25 26 27 28 212 0
-246 -245 -244 -243 -242 -241 247 0
42 43 44 45 46 47 248 0
-288 -287 -286 -285 -284 -283 289 0
61 62 63 64 65 66 290 0
-324 -323 -322 -321 -320 -319 325 0
80 81 82 83 84 85 326 0
-246 -243 -241 -123 121 122 247 0
-210 -207 -206 -120 -118 25 211 0
-168 -166 -116 11 115 117 169 0
-166 -116 6 11 115 117 169 0
-288 -286 -285 124 125 126 289 0
-168 -116 8 11 115 117 169 0
-167 -166 -165 -163 115 116 169 0
-168 -167 -166 -164 -115 116 169 0
-167 -165 -163 8 115 116 169 0
-122 -121 -48 -46 123 248 0
-129 -127 -86 -82 128 326 0
-129 -86 -83 127 128 326 0
-355 -129 127 128 291 317 326 0
-369 -123 -121 122 213 235 248 0
-120 -119 -118 -116 -11 115 117 171 0
-129 -127 -125 -124 -65 126 128 291 0
-122 -121 -120 -118 -25 119 123 213 0
-122 -121 -119 -118 -27 120 123 213 0
-126 -125 -124 -123 -48 -45 121 122 248 0
-120 -119 -118 -116 -12 -11 115 117 170 0
-129 -127 -125 -124 -67 -65 126 128 290 0
-122 -121 -119 -118 -29 -27 120 123 212 0
-122 -121 -120 -118 -29 -25 119 123 212 0
-362 -129 -127 -125 -124 -65 126 128 249 290 0
-129 -127 -126 -124 -67 -63 125 128 290 0
-381 -120 -119 -118 -116 -11 115 117 139 170 0
-380 -379 -378 -377 -162 -160 -158 -156 -154 381 0
-122 -121 -120 -118 -116 -115 -10 117 119 123 171 0
-122 -121 -119 -118 -117 -115 -8 116 120 123 171 0
-120 -119 -118 -116 -114 -112 -3 113 115 117 139 0
-122 -121 -120 -118 -116 -115 -12 -10 117 119 123 170 0
-129 -127 -125 -124 -123 -122 -121 -42 126 128 249 0
-122 -121 -119 -118 -117 -115 -12 -8 116 120 123 170 0
-122 -121 -119 -118 -117 -116 -115 -12 -6 120 123 170 0
-120 -119 -118 -116 -114 -112 -5 -3 113 115 117 138 0
-381 -122 -121 -120 -118 -116 -115 -10 117 119 123 139 170 0
-381 -122 -121 -119 -118 -117 -116 -115 -6 120 123 139 170 0
-129 -127 -125 -124 -123 -122 -121 -48 -42 126 128 248 0
-369 -129 -127 -125 -124 -123 -122 -121 -42 126 128 213 248 0
-347 -346 -345 -344 -343 -342 -341 -339 -337 -335 -333 -331 -329 348 0
-152 -151 -150 -149 -148 -147 -146 -145 -144 -143 -142 -141 -140 -12 153 0
-375 -374 -373 -372 -371 -370 -204 -202 -200 -198 -196 -194 -192 376 0
-368 -367 -366 -365 -364 -363 -240 -238 -236 -234 -232 -230 -228 369 0
-226 -225 -224 -223 -222 -221 -220 -219 -218 -217 -216 -215 -214 -48 227 0
-361 -360 -359 -358 -357 -356 -282 -280 -278 -276 -274 -272 -270 362 0
-354 -353 -352 -351 -350 -349 -318 -316 -314 -312 -310 -308 -306 355 0
-304 -303 -302 -301 -300 -299 -298 -297 -296 -295 -294 -293 -292 -86 305 0
-190 -189 -188 -187 -186 -185 -184 -183 -182 -181 -180 -179 -178 -177 -176 -175 -174 -173 -172 -29 191 0
-268 -267 -266 -265 -264 -263 -262 -261 -260 -259 -258 -257 -256 -255 -254 -253 -252 -251 -250 -67 269 0
